job_count = 28 ;
duration = [|15, 5, 14, 8|12, 25, 17, 9|6, 22, 18, 6|18, 21, 8, 5|26, 7, 17, 1|25, 11, 14, 5|17, 3, 7, 3|14, 29, 3, 3|19, 4, 9, 7|33, 11, 7, 8|7, 14, 6, 5|14, 15, 3, 9|17, 29, 5, 5|25, 3, 18, 3|34, 9, 4, 6|10, 19, 19, 7|13, 10, 12, 2|29, 21, 12, 3|37, 15, 10, 2|8, 20, 16, 9|26, 19, 5, 1|7, 14, 13, 1|25, 22, 18, 2|8, 9, 17, 2|39, 23, 8, 5|6, 27, 15, 3|4, 17, 11, 5|30, 23, 7, 9|] ;
machine_count = 4 ;
cost = [|19, 20, 50, 76|11, 32, 48, 70|19, 28, 31, 42|17, 20, 41, 68|18, 36, 52, 51|13, 39, 49, 64|11, 24, 46, 61|19, 37, 40, 65|10, 38, 37, 63|11, 39, 56, 48|19, 36, 33, 60|14, 38, 45, 60|15, 39, 53, 47|18, 30, 48, 77|19, 39, 40, 48|10, 30, 30, 49|10, 34, 55, 61|17, 39, 44, 52|15, 25, 58, 65|16, 32, 34, 73|10, 31, 38, 77|19, 24, 30, 40|19, 39, 59, 77|13, 33, 35, 42|19, 22, 50, 65|16, 37, 34, 47|11, 37, 42, 47|15, 21, 30, 50|] ;
deadline = [58, 58, 58, 58, 58, 58, 58, 58, 58, 58, 58, 58, 58, 58, 58, 58, 58, 58, 58, 58, 58, 58, 58, 58, 58, 58, 58, 58] ;
release = [0, 0, 0, 0, 0, 0, 0, 0, 0, 0, 0, 0, 0, 0, 0, 0, 0, 0, 0, 0, 0, 0, 0, 0, 0, 0, 0, 0] ;
resource = [|2, 2, 2, 2|1, 1, 1, 1|7, 7, 7, 7|6, 6, 6, 6|5, 5, 5, 5|2, 2, 2, 2|7, 7, 7, 7|9, 9, 9, 9|1, 1, 1, 1|4, 4, 4, 4|6, 6, 6, 6|8, 8, 8, 8|6, 6, 6, 6|1, 1, 1, 1|6, 6, 6, 6|5, 5, 5, 5|9, 9, 9, 9|9, 9, 9, 9|5, 5, 5, 5|1, 1, 1, 1|7, 7, 7, 7|2, 2, 2, 2|8, 8, 8, 8|5, 5, 5, 5|2, 2, 2, 2|6, 6, 6, 6|7, 7, 7, 7|5, 5, 5, 5|] ;
capacities = [10, 10, 10, 10] ;
